c description: Random 3-CNF over 20 variables and 85 clauses
c generator: CNFgen (0.9.2)
c copyright: (C) 2012-2022 Massimo Lauria <massimo.lauria@uniroma1.it>
c url: https://massimolauria.net/cnfgen
c command line: cnfgen --output CNF_4.28/20_bit_85_299.cnf randkcnf 3 20 85
c
p cnf 20 85
-2 7 14 0
-5 -8 -9 0
6 10 -14 0
12 13 17 0
5 -11 19 0
-4 10 -20 0
1 7 9 0
-7 -10 -12 0
5 6 10 0
-6 -14 -18 0
-5 7 20 0
3 -8 -10 0
-7 -9 18 0
-1 -7 -20 0
-2 -3 4 0
-1 7 -14 0
-14 -15 17 0
1 9 14 0
-1 -3 18 0
-10 14 -19 0
-4 7 -9 0
-13 -19 -20 0
7 9 12 0
-15 18 20 0
-5 -10 20 0
-13 17 -20 0
-1 6 14 0
6 9 18 0
-11 17 18 0
10 -18 -20 0
1 16 -17 0
-12 18 19 0
-5 -8 -15 0
7 -9 11 0
-10 11 13 0
15 -16 -20 0
13 18 20 0
10 -11 12 0
-3 -6 12 0
3 -11 19 0
-3 -5 18 0
-1 6 -7 0
-8 -11 -14 0
-3 -6 15 0
1 -5 20 0
5 -14 19 0
7 8 -11 0
4 -7 13 0
3 9 -20 0
-5 -7 -12 0
-3 -4 9 0
9 15 19 0
-6 -8 16 0
-5 -6 -15 0
-11 -12 -13 0
-4 -8 19 0
-3 -11 -16 0
1 8 -14 0
-10 -12 -14 0
-3 5 6 0
5 -6 -8 0
-8 13 15 0
3 -8 14 0
3 -4 11 0
-8 -13 20 0
7 9 15 0
2 10 13 0
-5 -15 -19 0
-5 -16 19 0
-7 -15 -17 0
4 -12 14 0
5 -11 -18 0
2 -7 -10 0
10 15 19 0
-7 -12 14 0
-2 -7 -13 0
-1 2 -15 0
9 -14 19 0
6 -16 18 0
2 -3 19 0
12 -13 15 0
-6 -8 19 0
-4 -12 -17 0
-2 13 16 0
-4 16 -18 0
